(set-logic ALL)
(declare-fun var0 () String)
(assert (str.in_re var0 (re.++ (re.* (re.+ (str.to_re "000"))) (re.++ (re.+ (re.+ (str.to_re "111"))) (re.++ (re.* (re.union (str.to_re "22") (str.to_re "333"))) (re.++ (re.* (re.* (str.to_re "4"))) (re.++ (re.* (re.+ (str.to_re "55"))) (re.++ (re.* (re.* (str.to_re "666"))) (re.++ (re.* (re.+ (str.to_re "777"))) (re.++ (re.* (re.union (str.to_re "888") (str.to_re "999"))) (re.++ (re.+ (re.+ (str.to_re "aa"))) (re.++ (re.union (re.union (str.to_re "bb") (str.to_re "c")) (re.union (str.to_re "dd") (str.to_re "e"))) (re.++ (re.* (re.+ (str.to_re "f"))) (re.++ (re.+ (re.* (str.to_re "gg"))) (re.++ (re.* (re.* (str.to_re "hhh"))) (re.++ (re.* (re.* (str.to_re "i"))) (re.++ (re.* (re.+ (str.to_re "j"))) (re.++ (re.* (re.* (str.to_re "k"))) (re.++ (re.* (re.union (str.to_re "ll") (str.to_re "mm"))) (re.++ (re.+ (re.* (str.to_re "nn"))) (re.++ (re.* (re.+ (str.to_re "oo"))) (re.++ (re.union (re.union (str.to_re "pp") (str.to_re "q")) (re.union (str.to_re "r") (str.to_re "sss"))) (re.++ (re.union (re.* (str.to_re "t")) (re.* (str.to_re "u"))) (re.++ (re.* (re.union (str.to_re "vv") (str.to_re "w"))) (re.++ (re.union (re.* (str.to_re "x")) (re.* (str.to_re "yyy"))) (re.++ (re.union (re.+ (str.to_re "zzz")) (re.+ (str.to_re "A"))) (re.++ (re.union (re.union (str.to_re "BB") (str.to_re "CC")) (re.union (str.to_re "DD") (str.to_re "EE"))) (re.++ (re.* (re.union (str.to_re "F") (str.to_re "G"))) (re.++ (re.* (re.+ (str.to_re "HHH"))) (re.++ (re.+ (re.* (str.to_re "I"))) (re.++ (re.+ (re.* (str.to_re "JJ"))) (re.++ (re.* (re.union (str.to_re "KK") (str.to_re "LL"))) (re.++ (re.union (re.+ (str.to_re "MM")) (re.+ (str.to_re "NNN"))) (re.++ (re.* (re.* (str.to_re "O"))) (re.++ (re.+ (re.union (str.to_re "PPP") (str.to_re "Q"))) (re.++ (re.* (re.* (str.to_re "R"))) (re.++ (re.+ (re.* (str.to_re "SS"))) (re.++ (re.union (re.+ (str.to_re "TT")) (re.+ (str.to_re "UUU"))) (re.++ (re.union (re.* (str.to_re "VV")) (re.* (str.to_re "WWW"))) (re.++ (re.union (re.* (str.to_re "XX")) (re.* (str.to_re "YYY"))) (re.++ (re.union (re.union (str.to_re "ZZZ") (str.to_re "!")) (re.union (str.to_re """") (str.to_re "##"))) (re.++ (re.+ (re.union (str.to_re "$$$") (str.to_re "%"))) (re.++ (re.* (re.+ (str.to_re "&&"))) (re.++ (re.* (re.+ (str.to_re "'''"))) (re.++ (re.+ (re.+ (str.to_re "("))) (re.++ (re.union (re.+ (str.to_re ")))")) (re.+ (str.to_re "**"))) (re.++ (re.* (re.+ (str.to_re "+"))) (re.++ (re.* (re.* (str.to_re ",,"))) (re.++ (re.union (re.+ (str.to_re "--")) (re.+ (str.to_re "."))) (re.++ (re.+ (re.union (str.to_re "//") (str.to_re ":"))) (re.++ (re.* (re.+ (str.to_re ";;;"))) (re.++ (re.+ (re.union (str.to_re "<<<") (str.to_re "==="))) (re.++ (re.* (re.union (str.to_re ">>") (str.to_re "??"))) (re.++ (re.* (re.+ (str.to_re "@@"))) (re.++ (re.* (re.+ (str.to_re "["))) (re.++ (re.union (re.union (str.to_re "\\\\") (str.to_re "]")) (re.union (str.to_re "^") (str.to_re "_"))) (re.++ (re.* (re.union (str.to_re "```") (str.to_re "{"))) (re.++ (re.* (re.* (str.to_re "|||"))) (re.++ (re.+ (re.* (str.to_re "}}"))) (re.++ (re.union (re.union (str.to_re "~~~") (str.to_re "000")) (re.union (str.to_re "11") (str.to_re "2"))) (re.++ (re.* (re.union (str.to_re "333") (str.to_re "44"))) (re.++ (re.union (re.* (str.to_re "55")) (re.* (str.to_re "6"))) (re.++ (re.union (re.+ (str.to_re "777")) (re.+ (str.to_re "888"))) (re.++ (re.+ (re.+ (str.to_re "9"))) (re.++ (re.+ (re.* (str.to_re "aa"))) (re.++ (re.* (re.* (str.to_re "b"))) (re.++ (re.union (re.* (str.to_re "ccc")) (re.* (str.to_re "d"))) (re.++ (re.+ (re.+ (str.to_re "eee"))) (re.++ (re.union (re.* (str.to_re "f")) (re.* (str.to_re "ggg"))) (re.++ (re.+ (re.union (str.to_re "h") (str.to_re "iii"))) (re.++ (re.* (re.union (str.to_re "jj") (str.to_re "kk"))) (re.++ (re.union (re.* (str.to_re "l")) (re.* (str.to_re "mm"))) (re.++ (re.union (re.* (str.to_re "n")) (re.* (str.to_re "ooo"))) (re.++ (re.+ (re.+ (str.to_re "p"))) (re.++ (re.+ (re.* (str.to_re "qqq"))) (re.++ (re.union (re.union (str.to_re "rrr") (str.to_re "sss")) (re.union (str.to_re "t") (str.to_re "uu"))) (re.++ (re.union (re.* (str.to_re "vvv")) (re.* (str.to_re "www"))) (re.++ (re.union (re.union (str.to_re "xxx") (str.to_re "y")) (re.union (str.to_re "zz") (str.to_re "AA"))) (re.++ (re.* (re.union (str.to_re "BBB") (str.to_re "C"))) (re.++ (re.* (re.* (str.to_re "DD"))) (re.++ (re.+ (re.union (str.to_re "EEE") (str.to_re "FFF"))) (re.++ (re.union (re.* (str.to_re "GG")) (re.* (str.to_re "HHH"))) (re.++ (re.* (re.* (str.to_re "II"))) (re.++ (re.* (re.+ (str.to_re "J"))) (re.++ (re.* (re.union (str.to_re "KKK") (str.to_re "LL"))) (re.++ (re.union (re.* (str.to_re "MMM")) (re.* (str.to_re "N"))) (re.++ (re.union (re.* (str.to_re "O")) (re.* (str.to_re "P"))) (re.++ (re.+ (re.* (str.to_re "Q"))) (re.++ (re.+ (re.union (str.to_re "R") (str.to_re "SSS"))) (re.++ (re.* (re.+ (str.to_re "TTT"))) (re.++ (re.* (re.* (str.to_re "UU"))) (re.++ (re.+ (re.union (str.to_re "VVV") (str.to_re "W"))) (re.++ (re.* (re.union (str.to_re "XX") (str.to_re "YYY"))) (re.++ (re.+ (re.+ (str.to_re "ZZ"))) (re.++ (re.+ (re.+ (str.to_re "!!"))) (re.++ (re.+ (re.union (str.to_re """""") (str.to_re "###"))) (re.++ (re.* (re.+ (str.to_re "$$$"))) (re.++ (re.union (re.union (str.to_re "%%") (str.to_re "&")) (re.union (str.to_re "'''") (str.to_re "(("))) (re.++ (re.union (re.union (str.to_re ")") (str.to_re "**")) (re.union (str.to_re "+") (str.to_re ",,,"))) (re.++ (re.+ (re.* (str.to_re "--"))) (re.++ (re.union (re.+ (str.to_re "...")) (re.+ (str.to_re "/"))) (re.++ (re.union (re.+ (str.to_re ":::")) (re.+ (str.to_re ";"))) (re.++ (re.union (re.* (str.to_re "<<")) (re.* (str.to_re "=="))) (re.++ (re.* (re.+ (str.to_re ">>>"))) (re.++ (re.* (re.+ (str.to_re "?"))) (re.++ (re.union (re.* (str.to_re "@@@")) (re.* (str.to_re "["))) (re.++ (re.union (re.* (str.to_re "\\")) (re.* (str.to_re "]]"))) (re.++ (re.union (re.union (str.to_re "^^^") (str.to_re "___")) (re.union (str.to_re "``") (str.to_re "{"))) (re.++ (re.* (re.* (str.to_re "||"))) (re.++ (re.* (re.* (str.to_re "}"))) (re.++ (re.+ (re.+ (str.to_re "~"))) (re.++ (re.+ (re.+ (str.to_re "00"))) (re.++ (re.union (re.union (str.to_re "111") (str.to_re "22")) (re.union (str.to_re "333") (str.to_re "44"))) (re.++ (re.* (re.union (str.to_re "5") (str.to_re "666"))) (re.++ (re.union (re.union (str.to_re "777") (str.to_re "888")) (re.union (str.to_re "9") (str.to_re "a"))) (re.++ (re.+ (re.* (str.to_re "bb"))) (re.++ (re.* (re.+ (str.to_re "cc"))) (re.++ (re.+ (re.+ (str.to_re "ddd"))) (re.++ (re.union (re.+ (str.to_re "ee")) (re.+ (str.to_re "ff"))) (re.++ (re.union (re.* (str.to_re "gg")) (re.* (str.to_re "hh"))) (re.++ (re.* (re.* (str.to_re "i"))) (re.++ (re.* (re.+ (str.to_re "jj"))) (re.++ (re.+ (re.* (str.to_re "kk"))) (re.++ (re.union (re.* (str.to_re "ll")) (re.* (str.to_re "m"))) (re.++ (re.* (re.+ (str.to_re "n"))) (re.++ (re.union (re.* (str.to_re "oo")) (re.* (str.to_re "ppp"))) (re.++ (re.* (re.+ (str.to_re "qqq"))) (re.++ (re.union (re.+ (str.to_re "rr")) (re.+ (str.to_re "s"))) (re.++ (re.* (re.union (str.to_re "ttt") (str.to_re "uu"))) (re.++ (re.+ (re.union (str.to_re "v") (str.to_re "www"))) (re.++ (re.* (re.* (str.to_re "xx"))) (re.++ (re.* (re.* (str.to_re "y"))) (re.++ (re.union (re.+ (str.to_re "z")) (re.+ (str.to_re "AA"))) (re.++ (re.union (re.union (str.to_re "B") (str.to_re "CC")) (re.union (str.to_re "DDD") (str.to_re "E"))) (re.++ (re.* (re.* (str.to_re "FFF"))) (re.++ (re.* (re.* (str.to_re "GG"))) (re.++ (re.union (re.* (str.to_re "HH")) (re.* (str.to_re "III"))) (re.++ (re.* (re.* (str.to_re "JJJ"))) (re.++ (re.+ (re.* (str.to_re "K"))) (re.++ (re.* (re.* (str.to_re "L"))) (re.++ (re.+ (re.* (str.to_re "MM"))) (re.++ (re.* (re.* (str.to_re "NNN"))) (re.++ (re.+ (re.* (str.to_re "O"))) (re.++ (re.+ (re.union (str.to_re "P") (str.to_re "QQ"))) (re.++ (re.+ (re.* (str.to_re "R"))) (re.++ (re.* (re.union (str.to_re "SSS") (str.to_re "TTT"))) (re.++ (re.+ (re.+ (str.to_re "UUU"))) (re.++ (re.+ (re.+ (str.to_re "V"))) (re.++ (re.* (re.union (str.to_re "WWW") (str.to_re "XXX"))) (re.++ (re.union (re.* (str.to_re "YY")) (re.* (str.to_re "ZZZ"))) (re.++ (re.union (re.* (str.to_re "!!!")) (re.* (str.to_re """"""""))) (re.++ (re.union (re.union (str.to_re "##") (str.to_re "$")) (re.union (str.to_re "%") (str.to_re "&"))) (re.++ (re.* (re.* (str.to_re "''"))) (re.++ (re.* (re.union (str.to_re "(((") (str.to_re "))"))) (re.++ (re.* (re.* (str.to_re "*"))) (re.++ (re.* (re.* (str.to_re "+"))) (re.++ (re.* (re.union (str.to_re ",") (str.to_re "--"))) (re.++ (re.+ (re.union (str.to_re ".") (str.to_re "/"))) (re.++ (re.* (re.* (str.to_re ":"))) (re.++ (re.union (re.+ (str.to_re ";;;")) (re.+ (str.to_re "<<"))) (re.++ (re.union (re.+ (str.to_re "==")) (re.+ (str.to_re ">"))) (re.++ (re.union (re.* (str.to_re "???")) (re.* (str.to_re "@"))) (re.++ (re.* (re.* (str.to_re "[[["))) (re.++ (re.+ (re.+ (str.to_re "\\\\\\"))) (re.++ (re.union (re.+ (str.to_re "]]")) (re.+ (str.to_re "^^^"))) (re.++ (re.union (re.+ (str.to_re "___")) (re.+ (str.to_re "``"))) (re.++ (re.union (re.* (str.to_re "{{{")) (re.* (str.to_re "||"))) (re.++ (re.+ (re.+ (str.to_re "}}"))) (re.++ (re.* (re.+ (str.to_re "~"))) (re.++ (re.+ (re.union (str.to_re "00") (str.to_re "11"))) (re.++ (re.union (re.union (str.to_re "222") (str.to_re "33")) (re.union (str.to_re "444") (str.to_re "555"))) (re.++ (re.+ (re.union (str.to_re "6") (str.to_re "7"))) (re.++ (re.* (re.* (str.to_re "8"))) (re.++ (re.+ (re.* (str.to_re "99"))) (re.++ (re.union (re.union (str.to_re "aa") (str.to_re "bb")) (re.union (str.to_re "c") (str.to_re "dd"))) (re.++ (re.+ (re.union (str.to_re "ee") (str.to_re "f"))) (re.++ (re.+ (re.+ (str.to_re "gg"))) (re.++ (re.union (re.union (str.to_re "h") (str.to_re "i")) (re.union (str.to_re "j") (str.to_re "kkk"))) (re.++ (re.union (re.union (str.to_re "ll") (str.to_re "mmm")) (re.union (str.to_re "nn") (str.to_re "oo"))) (re.++ (re.union (re.* (str.to_re "ppp")) (re.* (str.to_re "qqq"))) (re.++ (re.+ (re.+ (str.to_re "r"))) (re.++ (re.union (re.* (str.to_re "sss")) (re.* (str.to_re "t"))) (re.++ (re.+ (re.+ (str.to_re "uuu"))) (re.++ (re.* (re.union (str.to_re "v") (str.to_re "www"))) (re.* (re.union (str.to_re "x") (str.to_re "yy")))))))))))))))))))))))))))))))))))))))))))))))))))))))))))))))))))))))))))))))))))))))))))))))))))))))))))))))))))))))))))))))))))))))))))))))))))))))))))))))))))))))))))))))))))))))))))
(check-sat)